(define-fun inv2 ((x!0 Int) (x!1 Int) (x!2 Int)) Bool
  (let ((a!1 (not (>= (+ x!0 (* (- 1) x!2)) 1)))
        (a!2 (not (>= (+ (* 8 x!0) (* (- 1) x!2)) 1)))
        (a!3 (not (<= (+ (* 4 x!1) (* (- 1) x!2)) (- 1))))
        (a!4 (not (>= (+ (* 4 x!0) (* (- 1) x!2)) 1)))
        (a!5 (not (<= (+ (* 2 x!1) (* (- 1) x!2)) (- 1))))
        (a!6 (not (>= (+ (* 2 x!0) (* (- 1) x!2)) 1)))
        (a!7 (not (<= (+ x!1 (* (- 1) x!2)) (- 1))))
        (a!8 (= (mod (+ 7 (* (- 1) x!0)) 8) 0))
        (a!9 (= (mod (+ 5 (* (- 1) x!0)) 8) 0))
        (a!10 (= (mod (+ 6 (* (- 1) x!0)) 8) 0))
        (a!11 (= (mod (+ 3 (* (- 1) x!0)) 4) 0))
        (a!13 (not (>= (+ (* 4 x!1) (* (- 1) x!2)) 0)))
        (a!14 (= (mod (+ 2 (* (- 1) x!0)) 4) 0))
        (a!15 (not (= (mod (+ 1 x!0) 2) 0)))
        (a!16 (not (>= (+ (* 8 x!1) (* (- 1) x!2)) 0)))
        (a!17 (not (>= (+ (* 2 x!1) (* (- 1) x!2)) 0)))
        (a!18 (= (mod (+ 4 (* (- 1) x!0)) 8) 0))
        (a!19 (not (>= (+ x!1 (* (- 1) x!2)) 0)))
        (a!21 (not (>= (+ x!0 (* (- 2) x!1)) 0)))
        (a!22 (+ x!1 (* (- 1) (div (mod x!0 16) 2)))))
  (let ((a!12 (or (not (>= (mod x!0 16) 1)) a!6))
        (a!20 (or a!19 (not (>= (mod x!0 16) 1)) (not (>= x!0 7))))
        (a!23 (or (not (= a!22 0))
                  (not (>= x!0 8))
                  (not (>= (mod x!0 16) 1))
                  (not (<= (mod x!0 16) 11)))))
    (and (or (not (>= x!1 1)) (not (>= x!0 8)) (not (<= x!1 7)))
         (or (not (>= x!1 1)) a!1)
         (not (<= x!1 (- 1)))
         (not (<= x!2 15))
         (not (>= x!2 17))
         (or (not (>= x!1 1)) a!2 a!3)
         (or (not (>= x!1 1)) a!4 a!5)
         (or (not (>= x!1 1)) a!6 a!7)
         (not a!8)
         (not a!9)
         (not a!10)
         (not a!11)
         a!12
         (or a!13 (not a!14))
         (or a!15 a!16)
         (or a!17 (not a!18))
         a!20
         (or (not (>= x!1 1)) a!21)
         a!23))))

